c WMC file for PBN ISCAS/c432_distill_ISCAS/c432_miter written by probABC
p cnf 448 1173
58 32 -34 0
-58 -32 0
-58 34 0
59 28 -30 0
-59 -28 0
-59 30 0
60 20 -22 0
-60 -20 0
-60 22 0
61 16 -18 0
-61 -16 0
-61 18 0
62 60 61 0
-62 -60 0
-62 -61 0
63 12 -14 0
-63 -12 0
-63 14 0
64 37 63 0
-64 -37 0
-64 -63 0
65 -37 -63 0
-65 37 0
-65 63 0
66 64 65 0
-66 -64 0
-66 -65 0
67 24 -26 0
-67 -24 0
-67 26 0
68 38 67 0
-68 -38 0
-68 -67 0
69 -38 -67 0
-69 38 0
-69 67 0
70 68 69 0
-70 -68 0
-70 -69 0
71 4 -6 0
-71 -4 0
-71 6 0
72 1 -2 0
-72 -1 0
-72 2 0
73 8 -10 0
-73 -8 0
-73 10 0
74 71 72 0
-74 -71 0
-74 -72 0
75 73 -74 0
-75 -73 0
-75 74 0
76 -62 66 0
-76 62 0
-76 -66 0
77 70 -75 0
-77 -70 0
-77 75 0
78 -76 -77 0
-78 76 0
-78 77 0
79 -39 -78 0
-79 39 0
-79 78 0
80 39 78 0
-80 -39 0
-80 -78 0
81 59 79 0
-81 -59 0
-81 -79 0
82 80 -81 0
-82 -80 0
-82 81 0
83 40 82 0
-83 -40 0
-83 -82 0
84 -40 -82 0
-84 40 0
-84 82 0
85 83 84 0
-85 -83 0
-85 -84 0
86 -44 85 0
-86 44 0
-86 -85 0
87 44 -85 0
-87 -44 0
-87 85 0
88 58 86 0
-88 -58 0
-88 -86 0
89 87 -88 0
-89 -87 0
-89 88 0
90 -45 89 0
-90 45 0
-90 -89 0
91 45 -89 0
-91 -45 0
-91 89 0
92 90 91 0
-92 -90 0
-92 -91 0
93 -34 35 0
-93 34 0
-93 -35 0
94 -92 -93 0
-94 92 0
-94 93 0
95 -18 19 0
-95 18 0
-95 -19 0
96 58 -85 0
-96 -58 0
-96 85 0
97 61 -96 0
-97 -61 0
-97 96 0
98 -61 96 0
-98 61 0
-98 -96 0
99 42 -98 0
-99 -42 0
-99 98 0
100 -42 98 0
-100 42 0
-100 -98 0
101 97 99 0
-101 -97 0
-101 -99 0
102 100 -101 0
-102 -100 0
-102 101 0
103 -95 102 0
-103 95 0
-103 -102 0
104 -71 96 0
-104 71 0
-104 -96 0
105 71 -96 0
-105 -71 0
-105 96 0
106 41 -105 0
-106 -41 0
-106 105 0
107 -41 105 0
-107 41 0
-107 -105 0
108 104 106 0
-108 -104 0
-108 -106 0
109 107 -108 0
-109 -107 0
-109 108 0
110 -6 109 0
-110 6 0
-110 -109 0
111 7 -110 0
-111 -7 0
-111 110 0
112 -22 23 0
-112 22 0
-112 -23 0
113 60 -96 0
-113 -60 0
-113 96 0
114 -60 96 0
-114 60 0
-114 -96 0
115 43 -114 0
-115 -43 0
-115 114 0
116 -43 114 0
-116 43 0
-116 -114 0
117 113 115 0
-117 -113 0
-117 -115 0
118 116 -117 0
-118 -116 0
-118 117 0
119 -112 118 0
-119 112 0
-119 -118 0
120 -14 15 0
-120 14 0
-120 -15 0
121 66 -96 0
-121 -66 0
-121 96 0
122 -66 96 0
-122 66 0
-122 -96 0
123 121 122 0
-123 -121 0
-123 -122 0
124 -120 123 0
-124 120 0
-124 -123 0
125 -59 96 0
-125 59 0
-125 -96 0
126 59 -96 0
-126 -59 0
-126 96 0
127 125 126 0
-127 -125 0
-127 -126 0
128 -30 127 0
-128 30 0
-128 -127 0
129 31 -128 0
-129 -31 0
-129 128 0
130 -72 96 0
-130 72 0
-130 -96 0
131 72 -96 0
-131 -72 0
-131 96 0
132 130 131 0
-132 -130 0
-132 -131 0
133 -2 132 0
-133 2 0
-133 -132 0
134 3 -133 0
-134 -3 0
-134 133 0
135 -26 27 0
-135 26 0
-135 -27 0
136 70 -96 0
-136 -70 0
-136 96 0
137 -70 96 0
-137 70 0
-137 -96 0
138 136 137 0
-138 -136 0
-138 -137 0
139 -135 138 0
-139 135 0
-139 -138 0
140 -10 11 0
-140 10 0
-140 -11 0
141 -73 96 0
-141 73 0
-141 -96 0
142 73 -96 0
-142 -73 0
-142 96 0
143 141 142 0
-143 -141 0
-143 -142 0
144 -140 143 0
-144 140 0
-144 -143 0
145 124 139 0
-145 -124 0
-145 -139 0
146 144 -145 0
-146 -144 0
-146 145 0
147 129 134 0
-147 -129 0
-147 -134 0
148 -146 -147 0
-148 146 0
-148 147 0
149 94 103 0
-149 -94 0
-149 -103 0
150 119 -149 0
-150 -119 0
-150 149 0
151 111 -148 0
-151 -111 0
-151 148 0
152 -150 -151 0
-152 150 0
-152 151 0
153 94 152 0
-153 -94 0
-153 -152 0
154 -34 36 0
-154 34 0
-154 -36 0
155 -92 -154 0
-155 92 0
-155 154 0
156 153 -155 0
-156 -153 0
-156 155 0
157 119 152 0
-157 -119 0
-157 -152 0
158 -22 25 0
-158 22 0
-158 -25 0
159 118 -158 0
-159 -118 0
-159 158 0
160 157 -159 0
-160 -157 0
-160 159 0
161 144 152 0
-161 -144 0
-161 -152 0
162 -144 -152 0
-162 144 0
-162 152 0
163 -10 13 0
-163 10 0
-163 -13 0
164 143 -163 0
-164 -143 0
-164 163 0
165 161 -164 0
-165 -161 0
-165 164 0
166 162 -165 0
-166 -162 0
-166 165 0
167 135 152 0
-167 -135 0
-167 -152 0
168 -139 -152 0
-168 139 0
-168 152 0
169 -26 29 0
-169 26 0
-169 -29 0
170 -49 169 0
-170 49 0
-170 -169 0
171 49 -169 0
-171 -49 0
-171 169 0
172 170 171 0
-172 -170 0
-172 -171 0
173 138 172 0
-173 -138 0
-173 -172 0
174 167 -173 0
-174 -167 0
-174 173 0
175 168 -174 0
-175 -168 0
-175 174 0
176 103 152 0
-176 -103 0
-176 -152 0
177 -18 21 0
-177 18 0
-177 -21 0
178 102 -177 0
-178 -102 0
-178 177 0
179 176 -178 0
-179 -176 0
-179 178 0
180 124 152 0
-180 -124 0
-180 -152 0
181 -14 17 0
-181 14 0
-181 -17 0
182 48 181 0
-182 -48 0
-182 -181 0
183 -48 -181 0
-183 48 0
-183 181 0
184 182 183 0
-184 -182 0
-184 -183 0
185 123 -184 0
-185 -123 0
-185 184 0
186 180 -185 0
-186 -180 0
-186 185 0
187 -7 152 0
-187 7 0
-187 -152 0
188 9 -110 0
-188 -9 0
-188 110 0
189 187 -188 0
-189 -187 0
-189 188 0
190 47 189 0
-190 -47 0
-190 -189 0
191 -47 -189 0
-191 47 0
-191 189 0
192 190 191 0
-192 -190 0
-192 -191 0
193 134 152 0
-193 -134 0
-193 -152 0
194 -134 -152 0
-194 134 0
-194 152 0
195 5 -133 0
-195 -5 0
-195 133 0
196 193 -195 0
-196 -193 0
-196 195 0
197 194 -196 0
-197 -194 0
-197 196 0
198 46 197 0
-198 -46 0
-198 -197 0
199 -46 -197 0
-199 46 0
-199 197 0
200 198 199 0
-200 -198 0
-200 -199 0
201 -50 -129 0
-201 50 0
-201 129 0
202 -152 201 0
-202 152 0
-202 -201 0
203 50 129 0
-203 -50 0
-203 -129 0
204 202 -203 0
-204 -202 0
-204 203 0
205 -202 203 0
-205 202 0
-205 -203 0
206 33 -128 0
-206 -33 0
-206 128 0
207 204 -206 0
-207 -204 0
-207 206 0
208 205 -207 0
-208 -205 0
-208 207 0
209 156 160 0
-209 -156 0
-209 -160 0
210 179 186 0
-210 -179 0
-210 -186 0
211 -209 -210 0
-211 209 0
-211 210 0
212 166 175 0
-212 -166 0
-212 -175 0
213 -211 -212 0
-213 211 0
-213 212 0
214 192 208 0
-214 -192 0
-214 -208 0
215 -213 -214 0
-215 213 0
-215 214 0
216 200 -215 0
-216 -200 0
-216 215 0
217 -5 216 0
-217 5 0
-217 -216 0
218 -1 96 0
-218 1 0
-218 -96 0
219 -3 152 0
-219 3 0
-219 -152 0
220 -2 218 0
-220 2 0
-220 -218 0
221 219 -220 0
-221 -219 0
-221 220 0
222 217 -221 0
-222 -217 0
-222 221 0
223 -28 96 0
-223 28 0
-223 -96 0
224 -31 152 0
-224 31 0
-224 -152 0
225 -33 216 0
-225 33 0
-225 -216 0
226 -30 223 0
-226 30 0
-226 -223 0
227 224 -226 0
-227 -224 0
-227 226 0
228 225 -227 0
-228 -225 0
-228 227 0
229 -25 216 0
-229 25 0
-229 -216 0
230 -20 96 0
-230 20 0
-230 -96 0
231 -23 152 0
-231 23 0
-231 -152 0
232 -22 230 0
-232 22 0
-232 -230 0
233 231 -232 0
-233 -231 0
-233 232 0
234 229 -233 0
-234 -229 0
-234 233 0
235 -29 216 0
-235 29 0
-235 -216 0
236 -24 96 0
-236 24 0
-236 -96 0
237 -27 152 0
-237 27 0
-237 -152 0
238 -26 236 0
-238 26 0
-238 -236 0
239 237 -238 0
-239 -237 0
-239 238 0
240 235 -239 0
-240 -235 0
-240 239 0
241 234 240 0
-241 -234 0
-241 -240 0
242 -35 152 0
-242 35 0
-242 -152 0
243 -32 85 0
-243 32 0
-243 -85 0
244 -36 216 0
-244 36 0
-244 -216 0
245 242 243 0
-245 -242 0
-245 -243 0
246 244 -245 0
-246 -244 0
-246 245 0
247 -54 -246 0
-247 54 0
-247 246 0
248 54 246 0
-248 -54 0
-248 -246 0
249 -34 247 0
-249 34 0
-249 -247 0
250 248 -249 0
-250 -248 0
-250 249 0
251 -21 216 0
-251 21 0
-251 -216 0
252 -19 152 0
-252 19 0
-252 -152 0
253 -16 96 0
-253 16 0
-253 -96 0
254 -18 253 0
-254 18 0
-254 -253 0
255 252 -254 0
-255 -252 0
-255 254 0
256 251 -255 0
-256 -251 0
-256 255 0
257 -53 256 0
-257 53 0
-257 -256 0
258 53 -256 0
-258 -53 0
-258 256 0
259 257 258 0
-259 -257 0
-259 -258 0
260 -4 96 0
-260 4 0
-260 -96 0
261 -9 216 0
-261 9 0
-261 -216 0
262 51 -187 0
-262 -51 0
-262 187 0
263 -51 187 0
-263 51 0
-263 -187 0
264 -6 260 0
-264 6 0
-264 -260 0
265 262 -264 0
-265 -262 0
-265 264 0
266 263 -265 0
-266 -263 0
-266 265 0
267 261 -266 0
-267 -261 0
-267 266 0
268 -13 216 0
-268 13 0
-268 -216 0
269 -8 96 0
-269 8 0
-269 -96 0
270 -11 152 0
-270 11 0
-270 -152 0
271 -10 269 0
-271 10 0
-271 -269 0
272 270 -271 0
-272 -270 0
-272 271 0
273 268 -272 0
-273 -268 0
-273 272 0
274 267 273 0
-274 -267 0
-274 -273 0
275 -17 216 0
-275 17 0
-275 -216 0
276 -12 96 0
-276 12 0
-276 -96 0
277 -15 152 0
-277 15 0
-277 -152 0
278 276 277 0
-278 -276 0
-278 -277 0
279 275 -278 0
-279 -275 0
-279 278 0
280 -52 -279 0
-280 52 0
-280 279 0
281 52 279 0
-281 -52 0
-281 -279 0
282 -14 280 0
-282 14 0
-282 -280 0
283 281 -282 0
-283 -281 0
-283 282 0
284 -274 283 0
-284 274 0
-284 -283 0
285 -259 -284 0
-285 259 0
-285 284 0
286 55 285 0
-286 -55 0
-286 -285 0
287 -55 -285 0
-287 55 0
-287 285 0
288 228 -241 0
-288 -228 0
-288 241 0
289 250 -288 0
-289 -250 0
-289 288 0
290 286 -289 0
-290 -286 0
-290 289 0
291 287 -290 0
-291 -287 0
-291 290 0
292 222 291 0
-292 -222 0
-292 -291 0
293 58 59 0
-293 -58 0
-293 -59 0
294 63 67 0
-294 -63 0
-294 -67 0
295 -293 -294 0
-295 293 0
-295 294 0
296 -62 -295 0
-296 62 0
-296 295 0
297 -75 -296 0
-297 75 0
-297 296 0
298 -1 297 0
-298 1 0
-298 -297 0
299 -2 298 0
-299 2 0
-299 -298 0
300 -28 297 0
-300 28 0
-300 -297 0
301 -30 300 0
-301 30 0
-301 -300 0
302 31 -301 0
-302 -31 0
-302 301 0
303 -24 297 0
-303 24 0
-303 -297 0
304 -135 303 0
-304 135 0
-304 -303 0
305 -4 297 0
-305 4 0
-305 -297 0
306 -6 305 0
-306 6 0
-306 -305 0
307 7 -306 0
-307 -7 0
-307 306 0
308 -20 297 0
-308 20 0
-308 -297 0
309 -112 308 0
-309 112 0
-309 -308 0
310 -32 297 0
-310 32 0
-310 -297 0
311 -93 310 0
-311 93 0
-311 -310 0
312 -16 297 0
-312 16 0
-312 -297 0
313 -95 312 0
-313 95 0
-313 -312 0
314 -12 297 0
-314 12 0
-314 -297 0
315 -120 314 0
-315 120 0
-315 -314 0
316 3 -299 0
-316 -3 0
-316 299 0
317 304 309 0
-317 -304 0
-317 -309 0
318 311 313 0
-318 -311 0
-318 -313 0
319 315 -318 0
-319 -315 0
-319 318 0
320 302 -317 0
-320 -302 0
-320 317 0
321 307 316 0
-321 -307 0
-321 -316 0
322 -320 -321 0
-322 320 0
-322 321 0
323 -319 -322 0
-323 319 0
-323 322 0
324 -8 297 0
-324 8 0
-324 -297 0
325 -140 324 0
-325 140 0
-325 -324 0
326 -323 325 0
-326 323 0
-326 -325 0
327 -3 326 0
-327 3 0
-327 -326 0
328 -299 327 0
-328 299 0
-328 -327 0
329 -35 326 0
-329 35 0
-329 -326 0
330 -34 310 0
-330 34 0
-330 -310 0
331 329 -330 0
-331 -329 0
-331 330 0
332 36 -331 0
-332 -36 0
-332 331 0
333 304 326 0
-333 -304 0
-333 -326 0
334 -304 -326 0
-334 304 0
-334 326 0
335 -169 303 0
-335 169 0
-335 -303 0
336 333 -335 0
-336 -333 0
-336 335 0
337 334 -336 0
-337 -334 0
-337 336 0
338 -11 323 0
-338 11 0
-338 -323 0
339 -10 324 0
-339 10 0
-339 -324 0
340 338 -339 0
-340 -338 0
-340 339 0
341 13 -340 0
-341 -13 0
-341 340 0
342 -23 326 0
-342 23 0
-342 -326 0
343 -22 308 0
-343 22 0
-343 -308 0
344 342 -343 0
-344 -342 0
-344 343 0
345 25 -344 0
-345 -25 0
-345 344 0
346 -7 326 0
-346 7 0
-346 -326 0
347 -306 346 0
-347 306 0
-347 -346 0
348 9 -347 0
-348 -9 0
-348 347 0
349 -31 326 0
-349 31 0
-349 -326 0
350 -301 349 0
-350 301 0
-350 -349 0
351 33 -350 0
-351 -33 0
-351 350 0
352 5 -328 0
-352 -5 0
-352 328 0
353 -19 326 0
-353 19 0
-353 -326 0
354 -18 312 0
-354 18 0
-354 -312 0
355 353 -354 0
-355 -353 0
-355 354 0
356 21 -355 0
-356 -21 0
-356 355 0
357 -15 326 0
-357 15 0
-357 -326 0
358 314 357 0
-358 -314 0
-358 -357 0
359 -181 -358 0
-359 181 0
-359 358 0
360 337 341 0
-360 -337 0
-360 -341 0
361 345 348 0
-361 -345 0
-361 -348 0
362 351 352 0
-362 -351 0
-362 -352 0
363 356 359 0
-363 -356 0
-363 -359 0
364 -362 -363 0
-364 362 0
-364 363 0
365 -360 -361 0
-365 360 0
-365 361 0
366 -364 -365 0
-366 364 0
-366 365 0
367 332 -366 0
-367 -332 0
-367 366 0
368 -5 367 0
-368 5 0
-368 -367 0
369 -328 368 0
-369 328 0
-369 -368 0
370 -21 367 0
-370 21 0
-370 -367 0
371 -355 370 0
-371 355 0
-371 -370 0
372 -17 367 0
-372 17 0
-372 -367 0
373 -14 -358 0
-373 14 0
-373 358 0
374 372 -373 0
-374 -372 0
-374 373 0
375 371 374 0
-375 -371 0
-375 -374 0
376 -13 367 0
-376 13 0
-376 -367 0
377 -340 376 0
-377 340 0
-377 -376 0
378 -9 367 0
-378 9 0
-378 -367 0
379 -347 378 0
-379 347 0
-379 -378 0
380 377 379 0
-380 -377 0
-380 -379 0
381 -375 -380 0
-381 375 0
-381 380 0
382 -33 367 0
-382 33 0
-382 -367 0
383 -350 382 0
-383 350 0
-383 -382 0
384 -25 367 0
-384 25 0
-384 -367 0
385 -344 384 0
-385 344 0
-385 -384 0
386 -36 366 0
-386 36 0
-386 -366 0
387 -331 386 0
-387 331 0
-387 -386 0
388 -29 367 0
-388 29 0
-388 -367 0
389 -27 326 0
-389 27 0
-389 -326 0
390 -26 303 0
-390 26 0
-390 -303 0
391 389 -390 0
-391 -389 0
-391 390 0
392 388 -391 0
-392 -388 0
-392 391 0
393 383 387 0
-393 -383 0
-393 -387 0
394 385 392 0
-394 -385 0
-394 -392 0
395 -393 -394 0
-395 393 0
-395 394 0
396 -381 -395 0
-396 381 0
-396 395 0
397 369 396 0
-397 -369 0
-397 -396 0
398 292 397 0
-398 -292 0
-398 -397 0
399 -292 -397 0
-399 292 0
-399 397 0
400 398 399 0
-400 -398 0
-400 -399 0
401 -56 284 0
-401 56 0
-401 -284 0
402 56 -284 0
-402 -56 0
-402 284 0
403 401 402 0
-403 -401 0
-403 -402 0
404 -259 403 0
-404 259 0
-404 -403 0
405 -381 404 0
-405 381 0
-405 -404 0
406 381 -404 0
-406 -381 0
-406 404 0
407 216 -367 0
-407 -216 0
-407 367 0
408 85 -297 0
-408 -85 0
-408 297 0
409 -96 297 0
-409 96 0
-409 -297 0
410 152 -326 0
-410 -152 0
-410 326 0
411 -152 326 0
-411 152 0
-411 -326 0
412 -216 367 0
-412 216 0
-412 -367 0
413 371 -385 0
-413 -371 0
-413 385 0
414 374 -413 0
-414 -374 0
-414 413 0
415 -375 -392 0
-415 375 0
-415 392 0
416 -380 414 0
-416 380 0
-416 -414 0
417 415 -416 0
-417 -415 0
-417 416 0
418 241 -259 0
-418 -241 0
-418 259 0
419 283 -418 0
-419 -283 0
-419 418 0
420 -274 419 0
-420 274 0
-420 -419 0
421 417 420 0
-421 -417 0
-421 -420 0
422 -417 -420 0
-422 417 0
-422 420 0
423 421 422 0
-423 -421 0
-423 -422 0
424 -383 392 0
-424 383 0
-424 -392 0
425 374 413 0
-425 -374 0
-425 -413 0
426 424 -425 0
-426 -424 0
-426 425 0
427 377 426 0
-427 -377 0
-427 -426 0
428 379 427 0
-428 -379 0
-428 -427 0
429 -228 240 0
-429 228 0
-429 -240 0
430 -234 -259 0
-430 234 0
-430 259 0
431 283 429 0
-431 -283 0
-431 -429 0
432 430 -431 0
-432 -430 0
-432 431 0
433 273 432 0
-433 -273 0
-433 -432 0
434 267 433 0
-434 -267 0
-434 -433 0
435 428 434 0
-435 -428 0
-435 -434 0
436 -428 -434 0
-436 428 0
-436 434 0
437 435 436 0
-437 -435 0
-437 -436 0
438 408 409 0
-438 -408 0
-438 -409 0
439 410 -438 0
-439 -410 0
-439 438 0
440 411 -439 0
-440 -411 0
-440 439 0
441 407 -440 0
-441 -407 0
-441 440 0
442 412 -441 0
-442 -412 0
-442 441 0
443 423 -442 0
-443 -423 0
-443 442 0
444 405 -443 0
-444 -405 0
-444 443 0
445 406 -444 0
-445 -406 0
-445 444 0
446 437 -445 0
-446 -437 0
-446 445 0
447 400 -446 0
-447 -400 0
-447 446 0
57 447 0
-57 -447 0
57 0
w 1 0.500000
w 2 0.500000
w 3 0.500000
w 4 0.500000
w 5 0.500000
w 6 0.500000
w 7 0.500000
w 8 0.500000
w 9 0.500000
w 10 0.500000
w 11 0.500000
w 12 0.500000
w 13 0.500000
w 14 0.500000
w 15 0.500000
w 16 0.500000
w 17 0.500000
w 18 0.500000
w 19 0.500000
w 20 0.500000
w 21 0.500000
w 22 0.500000
w 23 0.500000
w 24 0.500000
w 25 0.500000
w 26 0.500000
w 27 0.500000
w 28 0.500000
w 29 0.500000
w 30 0.500000
w 31 0.500000
w 32 0.500000
w 33 0.500000
w 34 0.500000
w 35 0.500000
w 36 0.500000
w 37 0.125000
w 38 0.125000
w 39 0.125000
w 40 0.125000
w 41 0.125000
w 42 0.125000
w 43 0.125000
w 44 0.125000
w 45 0.125000
w 46 0.125000
w 47 0.125000
w 48 0.125000
w 49 0.125000
w 50 0.125000
w 51 0.125000
w 52 0.125000
w 53 0.125000
w 54 0.125000
w 55 0.125000
w 56 0.125000
w 58 -1
w 59 -1
w 60 -1
w 61 -1
w 62 -1
w 63 -1
w 64 -1
w 65 -1
w 66 -1
w 67 -1
w 68 -1
w 69 -1
w 70 -1
w 71 -1
w 72 -1
w 73 -1
w 74 -1
w 75 -1
w 76 -1
w 77 -1
w 78 -1
w 79 -1
w 80 -1
w 81 -1
w 82 -1
w 83 -1
w 84 -1
w 85 -1
w 86 -1
w 87 -1
w 88 -1
w 89 -1
w 90 -1
w 91 -1
w 92 -1
w 93 -1
w 94 -1
w 95 -1
w 96 -1
w 97 -1
w 98 -1
w 99 -1
w 100 -1
w 101 -1
w 102 -1
w 103 -1
w 104 -1
w 105 -1
w 106 -1
w 107 -1
w 108 -1
w 109 -1
w 110 -1
w 111 -1
w 112 -1
w 113 -1
w 114 -1
w 115 -1
w 116 -1
w 117 -1
w 118 -1
w 119 -1
w 120 -1
w 121 -1
w 122 -1
w 123 -1
w 124 -1
w 125 -1
w 126 -1
w 127 -1
w 128 -1
w 129 -1
w 130 -1
w 131 -1
w 132 -1
w 133 -1
w 134 -1
w 135 -1
w 136 -1
w 137 -1
w 138 -1
w 139 -1
w 140 -1
w 141 -1
w 142 -1
w 143 -1
w 144 -1
w 145 -1
w 146 -1
w 147 -1
w 148 -1
w 149 -1
w 150 -1
w 151 -1
w 152 -1
w 153 -1
w 154 -1
w 155 -1
w 156 -1
w 157 -1
w 158 -1
w 159 -1
w 160 -1
w 161 -1
w 162 -1
w 163 -1
w 164 -1
w 165 -1
w 166 -1
w 167 -1
w 168 -1
w 169 -1
w 170 -1
w 171 -1
w 172 -1
w 173 -1
w 174 -1
w 175 -1
w 176 -1
w 177 -1
w 178 -1
w 179 -1
w 180 -1
w 181 -1
w 182 -1
w 183 -1
w 184 -1
w 185 -1
w 186 -1
w 187 -1
w 188 -1
w 189 -1
w 190 -1
w 191 -1
w 192 -1
w 193 -1
w 194 -1
w 195 -1
w 196 -1
w 197 -1
w 198 -1
w 199 -1
w 200 -1
w 201 -1
w 202 -1
w 203 -1
w 204 -1
w 205 -1
w 206 -1
w 207 -1
w 208 -1
w 209 -1
w 210 -1
w 211 -1
w 212 -1
w 213 -1
w 214 -1
w 215 -1
w 216 -1
w 217 -1
w 218 -1
w 219 -1
w 220 -1
w 221 -1
w 222 -1
w 223 -1
w 224 -1
w 225 -1
w 226 -1
w 227 -1
w 228 -1
w 229 -1
w 230 -1
w 231 -1
w 232 -1
w 233 -1
w 234 -1
w 235 -1
w 236 -1
w 237 -1
w 238 -1
w 239 -1
w 240 -1
w 241 -1
w 242 -1
w 243 -1
w 244 -1
w 245 -1
w 246 -1
w 247 -1
w 248 -1
w 249 -1
w 250 -1
w 251 -1
w 252 -1
w 253 -1
w 254 -1
w 255 -1
w 256 -1
w 257 -1
w 258 -1
w 259 -1
w 260 -1
w 261 -1
w 262 -1
w 263 -1
w 264 -1
w 265 -1
w 266 -1
w 267 -1
w 268 -1
w 269 -1
w 270 -1
w 271 -1
w 272 -1
w 273 -1
w 274 -1
w 275 -1
w 276 -1
w 277 -1
w 278 -1
w 279 -1
w 280 -1
w 281 -1
w 282 -1
w 283 -1
w 284 -1
w 285 -1
w 286 -1
w 287 -1
w 288 -1
w 289 -1
w 290 -1
w 291 -1
w 292 -1
w 293 -1
w 294 -1
w 295 -1
w 296 -1
w 297 -1
w 298 -1
w 299 -1
w 300 -1
w 301 -1
w 302 -1
w 303 -1
w 304 -1
w 305 -1
w 306 -1
w 307 -1
w 308 -1
w 309 -1
w 310 -1
w 311 -1
w 312 -1
w 313 -1
w 314 -1
w 315 -1
w 316 -1
w 317 -1
w 318 -1
w 319 -1
w 320 -1
w 321 -1
w 322 -1
w 323 -1
w 324 -1
w 325 -1
w 326 -1
w 327 -1
w 328 -1
w 329 -1
w 330 -1
w 331 -1
w 332 -1
w 333 -1
w 334 -1
w 335 -1
w 336 -1
w 337 -1
w 338 -1
w 339 -1
w 340 -1
w 341 -1
w 342 -1
w 343 -1
w 344 -1
w 345 -1
w 346 -1
w 347 -1
w 348 -1
w 349 -1
w 350 -1
w 351 -1
w 352 -1
w 353 -1
w 354 -1
w 355 -1
w 356 -1
w 357 -1
w 358 -1
w 359 -1
w 360 -1
w 361 -1
w 362 -1
w 363 -1
w 364 -1
w 365 -1
w 366 -1
w 367 -1
w 368 -1
w 369 -1
w 370 -1
w 371 -1
w 372 -1
w 373 -1
w 374 -1
w 375 -1
w 376 -1
w 377 -1
w 378 -1
w 379 -1
w 380 -1
w 381 -1
w 382 -1
w 383 -1
w 384 -1
w 385 -1
w 386 -1
w 387 -1
w 388 -1
w 389 -1
w 390 -1
w 391 -1
w 392 -1
w 393 -1
w 394 -1
w 395 -1
w 396 -1
w 397 -1
w 398 -1
w 399 -1
w 400 -1
w 401 -1
w 402 -1
w 403 -1
w 404 -1
w 405 -1
w 406 -1
w 407 -1
w 408 -1
w 409 -1
w 410 -1
w 411 -1
w 412 -1
w 413 -1
w 414 -1
w 415 -1
w 416 -1
w 417 -1
w 418 -1
w 419 -1
w 420 -1
w 421 -1
w 422 -1
w 423 -1
w 424 -1
w 425 -1
w 426 -1
w 427 -1
w 428 -1
w 429 -1
w 430 -1
w 431 -1
w 432 -1
w 433 -1
w 434 -1
w 435 -1
w 436 -1
w 437 -1
w 438 -1
w 439 -1
w 440 -1
w 441 -1
w 442 -1
w 443 -1
w 444 -1
w 445 -1
w 446 -1
w 447 -1
w 57 -1
